# Solution for model Hess
# Objective value = 3.6549776476484553e+01
x[n_x0_y0,n_x0_y0] 0
x[n_x0_y0,n_x0_y1] 1
x[n_x0_y0,n_x0_y2] 0
x[n_x0_y0,n_x0_y3] 0
x[n_x0_y0,n_x0_y4] 0
x[n_x0_y0,n_x0_y5] 0
x[n_x0_y0,n_x0_y6] 0
x[n_x0_y0,n_x0_y7] 0
x[n_x0_y0,n_x1_y0] 0
x[n_x0_y0,n_x1_y1] 0
x[n_x0_y0,n_x1_y2] 0
x[n_x0_y0,n_x1_y3] 0
x[n_x0_y0,n_x1_y4] 0
x[n_x0_y0,n_x1_y5] 0
x[n_x0_y0,n_x1_y6] 0
x[n_x0_y0,n_x1_y7] 0
x[n_x0_y0,n_x2_y0] 0
x[n_x0_y0,n_x2_y1] 0
x[n_x0_y0,n_x2_y2] 0
x[n_x0_y0,n_x2_y3] 0
x[n_x0_y0,n_x2_y4] 0
x[n_x0_y0,n_x2_y5] 0
x[n_x0_y0,n_x2_y6] 0
x[n_x0_y0,n_x2_y7] 0
x[n_x0_y0,n_x3_y0] 0
x[n_x0_y0,n_x3_y1] 0
x[n_x0_y0,n_x3_y2] 0
x[n_x0_y0,n_x3_y3] 0
x[n_x0_y0,n_x3_y4] 0
x[n_x0_y0,n_x3_y5] 0
x[n_x0_y0,n_x3_y6] 0
x[n_x0_y0,n_x3_y7] 0
x[n_x0_y0,n_x4_y0] 0
x[n_x0_y0,n_x4_y1] 0
x[n_x0_y0,n_x4_y2] 0
x[n_x0_y0,n_x4_y3] 0
x[n_x0_y0,n_x4_y4] 0
x[n_x0_y0,n_x4_y5] 0
x[n_x0_y0,n_x4_y6] 0
x[n_x0_y0,n_x4_y7] 0
x[n_x0_y1,n_x0_y0] 0
x[n_x0_y1,n_x0_y1] 1
x[n_x0_y1,n_x0_y2] 0
x[n_x0_y1,n_x0_y3] 0
x[n_x0_y1,n_x0_y4] 0
x[n_x0_y1,n_x0_y5] 0
x[n_x0_y1,n_x0_y6] 0
x[n_x0_y1,n_x0_y7] 0
x[n_x0_y1,n_x1_y0] 0
x[n_x0_y1,n_x1_y1] 0
x[n_x0_y1,n_x1_y2] 0
x[n_x0_y1,n_x1_y3] 0
x[n_x0_y1,n_x1_y4] 0
x[n_x0_y1,n_x1_y5] 0
x[n_x0_y1,n_x1_y6] 0
x[n_x0_y1,n_x1_y7] 0
x[n_x0_y1,n_x2_y0] 0
x[n_x0_y1,n_x2_y1] 0
x[n_x0_y1,n_x2_y2] 0
x[n_x0_y1,n_x2_y3] 0
x[n_x0_y1,n_x2_y4] 0
x[n_x0_y1,n_x2_y5] 0
x[n_x0_y1,n_x2_y6] 0
x[n_x0_y1,n_x2_y7] 0
x[n_x0_y1,n_x3_y0] 0
x[n_x0_y1,n_x3_y1] 0
x[n_x0_y1,n_x3_y2] 0
x[n_x0_y1,n_x3_y3] 0
x[n_x0_y1,n_x3_y4] 0
x[n_x0_y1,n_x3_y5] 0
x[n_x0_y1,n_x3_y6] 0
x[n_x0_y1,n_x3_y7] 0
x[n_x0_y1,n_x4_y0] 0
x[n_x0_y1,n_x4_y1] 0
x[n_x0_y1,n_x4_y2] 0
x[n_x0_y1,n_x4_y3] 0
x[n_x0_y1,n_x4_y4] 0
x[n_x0_y1,n_x4_y5] 0
x[n_x0_y1,n_x4_y6] 0
x[n_x0_y1,n_x4_y7] 0
x[n_x0_y2,n_x0_y0] 0
x[n_x0_y2,n_x0_y1] 1
x[n_x0_y2,n_x0_y2] 0
x[n_x0_y2,n_x0_y3] 0
x[n_x0_y2,n_x0_y4] 0
x[n_x0_y2,n_x0_y5] 0
x[n_x0_y2,n_x0_y6] 0
x[n_x0_y2,n_x0_y7] 0
x[n_x0_y2,n_x1_y0] 0
x[n_x0_y2,n_x1_y1] 0
x[n_x0_y2,n_x1_y2] 0
x[n_x0_y2,n_x1_y3] 0
x[n_x0_y2,n_x1_y4] 0
x[n_x0_y2,n_x1_y5] 0
x[n_x0_y2,n_x1_y6] 0
x[n_x0_y2,n_x1_y7] 0
x[n_x0_y2,n_x2_y0] 0
x[n_x0_y2,n_x2_y1] 0
x[n_x0_y2,n_x2_y2] 0
x[n_x0_y2,n_x2_y3] 0
x[n_x0_y2,n_x2_y4] 0
x[n_x0_y2,n_x2_y5] 0
x[n_x0_y2,n_x2_y6] 0
x[n_x0_y2,n_x2_y7] 0
x[n_x0_y2,n_x3_y0] 0
x[n_x0_y2,n_x3_y1] 0
x[n_x0_y2,n_x3_y2] 0
x[n_x0_y2,n_x3_y3] 0
x[n_x0_y2,n_x3_y4] 0
x[n_x0_y2,n_x3_y5] 0
x[n_x0_y2,n_x3_y6] 0
x[n_x0_y2,n_x3_y7] 0
x[n_x0_y2,n_x4_y0] 0
x[n_x0_y2,n_x4_y1] 0
x[n_x0_y2,n_x4_y2] 0
x[n_x0_y2,n_x4_y3] 0
x[n_x0_y2,n_x4_y4] 0
x[n_x0_y2,n_x4_y5] 0
x[n_x0_y2,n_x4_y6] 0
x[n_x0_y2,n_x4_y7] 0
x[n_x0_y3,n_x0_y0] 0
x[n_x0_y3,n_x0_y1] 0
x[n_x0_y3,n_x0_y2] 0
x[n_x0_y3,n_x0_y3] 0
x[n_x0_y3,n_x0_y4] 0
x[n_x0_y3,n_x0_y5] 0
x[n_x0_y3,n_x0_y6] 0
x[n_x0_y3,n_x0_y7] 0
x[n_x0_y3,n_x1_y0] 0
x[n_x0_y3,n_x1_y1] 0
x[n_x0_y3,n_x1_y2] 0
x[n_x0_y3,n_x1_y3] 0
x[n_x0_y3,n_x1_y4] 1
x[n_x0_y3,n_x1_y5] 0
x[n_x0_y3,n_x1_y6] 0
x[n_x0_y3,n_x1_y7] 0
x[n_x0_y3,n_x2_y0] 0
x[n_x0_y3,n_x2_y1] 0
x[n_x0_y3,n_x2_y2] 0
x[n_x0_y3,n_x2_y3] 0
x[n_x0_y3,n_x2_y4] 0
x[n_x0_y3,n_x2_y5] 0
x[n_x0_y3,n_x2_y6] 0
x[n_x0_y3,n_x2_y7] 0
x[n_x0_y3,n_x3_y0] 0
x[n_x0_y3,n_x3_y1] 0
x[n_x0_y3,n_x3_y2] 0
x[n_x0_y3,n_x3_y3] 0
x[n_x0_y3,n_x3_y4] 0
x[n_x0_y3,n_x3_y5] 0
x[n_x0_y3,n_x3_y6] 0
x[n_x0_y3,n_x3_y7] 0
x[n_x0_y3,n_x4_y0] 0
x[n_x0_y3,n_x4_y1] 0
x[n_x0_y3,n_x4_y2] 0
x[n_x0_y3,n_x4_y3] 0
x[n_x0_y3,n_x4_y4] 0
x[n_x0_y3,n_x4_y5] 0
x[n_x0_y3,n_x4_y6] 0
x[n_x0_y3,n_x4_y7] 0
x[n_x0_y4,n_x0_y0] 0
x[n_x0_y4,n_x0_y1] 0
x[n_x0_y4,n_x0_y2] 0
x[n_x0_y4,n_x0_y3] 0
x[n_x0_y4,n_x0_y4] 0
x[n_x0_y4,n_x0_y5] 0
x[n_x0_y4,n_x0_y6] 0
x[n_x0_y4,n_x0_y7] 0
x[n_x0_y4,n_x1_y0] 0
x[n_x0_y4,n_x1_y1] 0
x[n_x0_y4,n_x1_y2] 0
x[n_x0_y4,n_x1_y3] 0
x[n_x0_y4,n_x1_y4] 1
x[n_x0_y4,n_x1_y5] 0
x[n_x0_y4,n_x1_y6] 0
x[n_x0_y4,n_x1_y7] 0
x[n_x0_y4,n_x2_y0] 0
x[n_x0_y4,n_x2_y1] 0
x[n_x0_y4,n_x2_y2] 0
x[n_x0_y4,n_x2_y3] 0
x[n_x0_y4,n_x2_y4] 0
x[n_x0_y4,n_x2_y5] 0
x[n_x0_y4,n_x2_y6] 0
x[n_x0_y4,n_x2_y7] 0
x[n_x0_y4,n_x3_y0] 0
x[n_x0_y4,n_x3_y1] 0
x[n_x0_y4,n_x3_y2] 0
x[n_x0_y4,n_x3_y3] 0
x[n_x0_y4,n_x3_y4] 0
x[n_x0_y4,n_x3_y5] 0
x[n_x0_y4,n_x3_y6] 0
x[n_x0_y4,n_x3_y7] 0
x[n_x0_y4,n_x4_y0] 0
x[n_x0_y4,n_x4_y1] 0
x[n_x0_y4,n_x4_y2] 0
x[n_x0_y4,n_x4_y3] 0
x[n_x0_y4,n_x4_y4] 0
x[n_x0_y4,n_x4_y5] 0
x[n_x0_y4,n_x4_y6] 0
x[n_x0_y4,n_x4_y7] 0
x[n_x0_y5,n_x0_y0] 0
x[n_x0_y5,n_x0_y1] 0
x[n_x0_y5,n_x0_y2] 0
x[n_x0_y5,n_x0_y3] 0
x[n_x0_y5,n_x0_y4] 0
x[n_x0_y5,n_x0_y5] 0
x[n_x0_y5,n_x0_y6] 0
x[n_x0_y5,n_x0_y7] 0
x[n_x0_y5,n_x1_y0] 0
x[n_x0_y5,n_x1_y1] 0
x[n_x0_y5,n_x1_y2] 0
x[n_x0_y5,n_x1_y3] 0
x[n_x0_y5,n_x1_y4] 1
x[n_x0_y5,n_x1_y5] 0
x[n_x0_y5,n_x1_y6] 0
x[n_x0_y5,n_x1_y7] 0
x[n_x0_y5,n_x2_y0] 0
x[n_x0_y5,n_x2_y1] 0
x[n_x0_y5,n_x2_y2] 0
x[n_x0_y5,n_x2_y3] 0
x[n_x0_y5,n_x2_y4] 0
x[n_x0_y5,n_x2_y5] 0
x[n_x0_y5,n_x2_y6] 0
x[n_x0_y5,n_x2_y7] 0
x[n_x0_y5,n_x3_y0] 0
x[n_x0_y5,n_x3_y1] 0
x[n_x0_y5,n_x3_y2] 0
x[n_x0_y5,n_x3_y3] 0
x[n_x0_y5,n_x3_y4] 0
x[n_x0_y5,n_x3_y5] 0
x[n_x0_y5,n_x3_y6] 0
x[n_x0_y5,n_x3_y7] 0
x[n_x0_y5,n_x4_y0] 0
x[n_x0_y5,n_x4_y1] 0
x[n_x0_y5,n_x4_y2] 0
x[n_x0_y5,n_x4_y3] 0
x[n_x0_y5,n_x4_y4] 0
x[n_x0_y5,n_x4_y5] 0
x[n_x0_y5,n_x4_y6] 0
x[n_x0_y5,n_x4_y7] 0
x[n_x0_y6,n_x0_y0] 0
x[n_x0_y6,n_x0_y1] 0
x[n_x0_y6,n_x0_y2] 0
x[n_x0_y6,n_x0_y3] 0
x[n_x0_y6,n_x0_y4] 0
x[n_x0_y6,n_x0_y5] 0
x[n_x0_y6,n_x0_y6] 0
x[n_x0_y6,n_x0_y7] 0
x[n_x0_y6,n_x1_y0] 0
x[n_x0_y6,n_x1_y1] 0
x[n_x0_y6,n_x1_y2] 0
x[n_x0_y6,n_x1_y3] 0
x[n_x0_y6,n_x1_y4] 0
x[n_x0_y6,n_x1_y5] 0
x[n_x0_y6,n_x1_y6] 1
x[n_x0_y6,n_x1_y7] 0
x[n_x0_y6,n_x2_y0] 0
x[n_x0_y6,n_x2_y1] 0
x[n_x0_y6,n_x2_y2] 0
x[n_x0_y6,n_x2_y3] 0
x[n_x0_y6,n_x2_y4] 0
x[n_x0_y6,n_x2_y5] 0
x[n_x0_y6,n_x2_y6] 0
x[n_x0_y6,n_x2_y7] 0
x[n_x0_y6,n_x3_y0] 0
x[n_x0_y6,n_x3_y1] 0
x[n_x0_y6,n_x3_y2] 0
x[n_x0_y6,n_x3_y3] 0
x[n_x0_y6,n_x3_y4] 0
x[n_x0_y6,n_x3_y5] 0
x[n_x0_y6,n_x3_y6] 0
x[n_x0_y6,n_x3_y7] 0
x[n_x0_y6,n_x4_y0] 0
x[n_x0_y6,n_x4_y1] 0
x[n_x0_y6,n_x4_y2] 0
x[n_x0_y6,n_x4_y3] 0
x[n_x0_y6,n_x4_y4] 0
x[n_x0_y6,n_x4_y5] 0
x[n_x0_y6,n_x4_y6] 0
x[n_x0_y6,n_x4_y7] 0
x[n_x0_y7,n_x0_y0] 0
x[n_x0_y7,n_x0_y1] 0
x[n_x0_y7,n_x0_y2] 0
x[n_x0_y7,n_x0_y3] 0
x[n_x0_y7,n_x0_y4] 0
x[n_x0_y7,n_x0_y5] 0
x[n_x0_y7,n_x0_y6] 0
x[n_x0_y7,n_x0_y7] 0
x[n_x0_y7,n_x1_y0] 0
x[n_x0_y7,n_x1_y1] 0
x[n_x0_y7,n_x1_y2] 0
x[n_x0_y7,n_x1_y3] 0
x[n_x0_y7,n_x1_y4] 0
x[n_x0_y7,n_x1_y5] 0
x[n_x0_y7,n_x1_y6] 1
x[n_x0_y7,n_x1_y7] 0
x[n_x0_y7,n_x2_y0] 0
x[n_x0_y7,n_x2_y1] 0
x[n_x0_y7,n_x2_y2] 0
x[n_x0_y7,n_x2_y3] 0
x[n_x0_y7,n_x2_y4] 0
x[n_x0_y7,n_x2_y5] 0
x[n_x0_y7,n_x2_y6] 0
x[n_x0_y7,n_x2_y7] 0
x[n_x0_y7,n_x3_y0] 0
x[n_x0_y7,n_x3_y1] 0
x[n_x0_y7,n_x3_y2] 0
x[n_x0_y7,n_x3_y3] 0
x[n_x0_y7,n_x3_y4] 0
x[n_x0_y7,n_x3_y5] 0
x[n_x0_y7,n_x3_y6] 0
x[n_x0_y7,n_x3_y7] 0
x[n_x0_y7,n_x4_y0] 0
x[n_x0_y7,n_x4_y1] 0
x[n_x0_y7,n_x4_y2] 0
x[n_x0_y7,n_x4_y3] 0
x[n_x0_y7,n_x4_y4] 0
x[n_x0_y7,n_x4_y5] 0
x[n_x0_y7,n_x4_y6] 0
x[n_x0_y7,n_x4_y7] 0
x[n_x1_y0,n_x0_y0] 0
x[n_x1_y0,n_x0_y1] 0
x[n_x1_y0,n_x0_y2] 0
x[n_x1_y0,n_x0_y3] 0
x[n_x1_y0,n_x0_y4] 0
x[n_x1_y0,n_x0_y5] 0
x[n_x1_y0,n_x0_y6] 0
x[n_x1_y0,n_x0_y7] 0
x[n_x1_y0,n_x1_y0] 0
x[n_x1_y0,n_x1_y1] 0
x[n_x1_y0,n_x1_y2] 0
x[n_x1_y0,n_x1_y3] 0
x[n_x1_y0,n_x1_y4] 0
x[n_x1_y0,n_x1_y5] 0
x[n_x1_y0,n_x1_y6] 0
x[n_x1_y0,n_x1_y7] 0
x[n_x1_y0,n_x2_y0] 0
x[n_x1_y0,n_x2_y1] 0
x[n_x1_y0,n_x2_y2] 1
x[n_x1_y0,n_x2_y3] 0
x[n_x1_y0,n_x2_y4] 0
x[n_x1_y0,n_x2_y5] 0
x[n_x1_y0,n_x2_y6] 0
x[n_x1_y0,n_x2_y7] 0
x[n_x1_y0,n_x3_y0] 0
x[n_x1_y0,n_x3_y1] 0
x[n_x1_y0,n_x3_y2] 0
x[n_x1_y0,n_x3_y3] 0
x[n_x1_y0,n_x3_y4] 0
x[n_x1_y0,n_x3_y5] 0
x[n_x1_y0,n_x3_y6] 0
x[n_x1_y0,n_x3_y7] 0
x[n_x1_y0,n_x4_y0] 0
x[n_x1_y0,n_x4_y1] 0
x[n_x1_y0,n_x4_y2] 0
x[n_x1_y0,n_x4_y3] 0
x[n_x1_y0,n_x4_y4] 0
x[n_x1_y0,n_x4_y5] 0
x[n_x1_y0,n_x4_y6] 0
x[n_x1_y0,n_x4_y7] 0
x[n_x1_y1,n_x0_y0] 0
x[n_x1_y1,n_x0_y1] 1
x[n_x1_y1,n_x0_y2] 0
x[n_x1_y1,n_x0_y3] 0
x[n_x1_y1,n_x0_y4] 0
x[n_x1_y1,n_x0_y5] 0
x[n_x1_y1,n_x0_y6] 0
x[n_x1_y1,n_x0_y7] 0
x[n_x1_y1,n_x1_y0] 0
x[n_x1_y1,n_x1_y1] 0
x[n_x1_y1,n_x1_y2] 0
x[n_x1_y1,n_x1_y3] 0
x[n_x1_y1,n_x1_y4] 0
x[n_x1_y1,n_x1_y5] 0
x[n_x1_y1,n_x1_y6] 0
x[n_x1_y1,n_x1_y7] 0
x[n_x1_y1,n_x2_y0] 0
x[n_x1_y1,n_x2_y1] 0
x[n_x1_y1,n_x2_y2] 0
x[n_x1_y1,n_x2_y3] 0
x[n_x1_y1,n_x2_y4] 0
x[n_x1_y1,n_x2_y5] 0
x[n_x1_y1,n_x2_y6] 0
x[n_x1_y1,n_x2_y7] 0
x[n_x1_y1,n_x3_y0] 0
x[n_x1_y1,n_x3_y1] 0
x[n_x1_y1,n_x3_y2] 0
x[n_x1_y1,n_x3_y3] 0
x[n_x1_y1,n_x3_y4] 0
x[n_x1_y1,n_x3_y5] 0
x[n_x1_y1,n_x3_y6] 0
x[n_x1_y1,n_x3_y7] 0
x[n_x1_y1,n_x4_y0] 0
x[n_x1_y1,n_x4_y1] 0
x[n_x1_y1,n_x4_y2] 0
x[n_x1_y1,n_x4_y3] 0
x[n_x1_y1,n_x4_y4] 0
x[n_x1_y1,n_x4_y5] 0
x[n_x1_y1,n_x4_y6] 0
x[n_x1_y1,n_x4_y7] 0
x[n_x1_y2,n_x0_y0] 0
x[n_x1_y2,n_x0_y1] 0
x[n_x1_y2,n_x0_y2] 0
x[n_x1_y2,n_x0_y3] 0
x[n_x1_y2,n_x0_y4] 0
x[n_x1_y2,n_x0_y5] 0
x[n_x1_y2,n_x0_y6] 0
x[n_x1_y2,n_x0_y7] 0
x[n_x1_y2,n_x1_y0] 0
x[n_x1_y2,n_x1_y1] 0
x[n_x1_y2,n_x1_y2] 0
x[n_x1_y2,n_x1_y3] 0
x[n_x1_y2,n_x1_y4] 0
x[n_x1_y2,n_x1_y5] 0
x[n_x1_y2,n_x1_y6] 0
x[n_x1_y2,n_x1_y7] 0
x[n_x1_y2,n_x2_y0] 0
x[n_x1_y2,n_x2_y1] 0
x[n_x1_y2,n_x2_y2] 1
x[n_x1_y2,n_x2_y3] 0
x[n_x1_y2,n_x2_y4] 0
x[n_x1_y2,n_x2_y5] 0
x[n_x1_y2,n_x2_y6] 0
x[n_x1_y2,n_x2_y7] 0
x[n_x1_y2,n_x3_y0] 0
x[n_x1_y2,n_x3_y1] 0
x[n_x1_y2,n_x3_y2] 0
x[n_x1_y2,n_x3_y3] 0
x[n_x1_y2,n_x3_y4] 0
x[n_x1_y2,n_x3_y5] 0
x[n_x1_y2,n_x3_y6] 0
x[n_x1_y2,n_x3_y7] 0
x[n_x1_y2,n_x4_y0] 0
x[n_x1_y2,n_x4_y1] 0
x[n_x1_y2,n_x4_y2] 0
x[n_x1_y2,n_x4_y3] 0
x[n_x1_y2,n_x4_y4] 0
x[n_x1_y2,n_x4_y5] 0
x[n_x1_y2,n_x4_y6] 0
x[n_x1_y2,n_x4_y7] 0
x[n_x1_y3,n_x0_y0] 0
x[n_x1_y3,n_x0_y1] 0
x[n_x1_y3,n_x0_y2] 0
x[n_x1_y3,n_x0_y3] 0
x[n_x1_y3,n_x0_y4] 0
x[n_x1_y3,n_x0_y5] 0
x[n_x1_y3,n_x0_y6] 0
x[n_x1_y3,n_x0_y7] 0
x[n_x1_y3,n_x1_y0] 0
x[n_x1_y3,n_x1_y1] 0
x[n_x1_y3,n_x1_y2] 0
x[n_x1_y3,n_x1_y3] 0
x[n_x1_y3,n_x1_y4] 0
x[n_x1_y3,n_x1_y5] 0
x[n_x1_y3,n_x1_y6] 0
x[n_x1_y3,n_x1_y7] 0
x[n_x1_y3,n_x2_y0] 0
x[n_x1_y3,n_x2_y1] 0
x[n_x1_y3,n_x2_y2] 1
x[n_x1_y3,n_x2_y3] 0
x[n_x1_y3,n_x2_y4] 0
x[n_x1_y3,n_x2_y5] 0
x[n_x1_y3,n_x2_y6] 0
x[n_x1_y3,n_x2_y7] 0
x[n_x1_y3,n_x3_y0] 0
x[n_x1_y3,n_x3_y1] 0
x[n_x1_y3,n_x3_y2] 0
x[n_x1_y3,n_x3_y3] 0
x[n_x1_y3,n_x3_y4] 0
x[n_x1_y3,n_x3_y5] 0
x[n_x1_y3,n_x3_y6] 0
x[n_x1_y3,n_x3_y7] 0
x[n_x1_y3,n_x4_y0] 0
x[n_x1_y3,n_x4_y1] 0
x[n_x1_y3,n_x4_y2] 0
x[n_x1_y3,n_x4_y3] 0
x[n_x1_y3,n_x4_y4] 0
x[n_x1_y3,n_x4_y5] 0
x[n_x1_y3,n_x4_y6] 0
x[n_x1_y3,n_x4_y7] 0
x[n_x1_y4,n_x0_y0] 0
x[n_x1_y4,n_x0_y1] 0
x[n_x1_y4,n_x0_y2] 0
x[n_x1_y4,n_x0_y3] 0
x[n_x1_y4,n_x0_y4] 0
x[n_x1_y4,n_x0_y5] 0
x[n_x1_y4,n_x0_y6] 0
x[n_x1_y4,n_x0_y7] 0
x[n_x1_y4,n_x1_y0] 0
x[n_x1_y4,n_x1_y1] 0
x[n_x1_y4,n_x1_y2] 0
x[n_x1_y4,n_x1_y3] 0
x[n_x1_y4,n_x1_y4] 1
x[n_x1_y4,n_x1_y5] 0
x[n_x1_y4,n_x1_y6] 0
x[n_x1_y4,n_x1_y7] 0
x[n_x1_y4,n_x2_y0] 0
x[n_x1_y4,n_x2_y1] 0
x[n_x1_y4,n_x2_y2] 0
x[n_x1_y4,n_x2_y3] 0
x[n_x1_y4,n_x2_y4] 0
x[n_x1_y4,n_x2_y5] 0
x[n_x1_y4,n_x2_y6] 0
x[n_x1_y4,n_x2_y7] 0
x[n_x1_y4,n_x3_y0] 0
x[n_x1_y4,n_x3_y1] 0
x[n_x1_y4,n_x3_y2] 0
x[n_x1_y4,n_x3_y3] 0
x[n_x1_y4,n_x3_y4] 0
x[n_x1_y4,n_x3_y5] 0
x[n_x1_y4,n_x3_y6] 0
x[n_x1_y4,n_x3_y7] 0
x[n_x1_y4,n_x4_y0] 0
x[n_x1_y4,n_x4_y1] 0
x[n_x1_y4,n_x4_y2] 0
x[n_x1_y4,n_x4_y3] 0
x[n_x1_y4,n_x4_y4] 0
x[n_x1_y4,n_x4_y5] 0
x[n_x1_y4,n_x4_y6] 0
x[n_x1_y4,n_x4_y7] 0
x[n_x1_y5,n_x0_y0] 0
x[n_x1_y5,n_x0_y1] 0
x[n_x1_y5,n_x0_y2] 0
x[n_x1_y5,n_x0_y3] 0
x[n_x1_y5,n_x0_y4] 0
x[n_x1_y5,n_x0_y5] 0
x[n_x1_y5,n_x0_y6] 0
x[n_x1_y5,n_x0_y7] 0
x[n_x1_y5,n_x1_y0] 0
x[n_x1_y5,n_x1_y1] 0
x[n_x1_y5,n_x1_y2] 0
x[n_x1_y5,n_x1_y3] 0
x[n_x1_y5,n_x1_y4] 1
x[n_x1_y5,n_x1_y5] 0
x[n_x1_y5,n_x1_y6] 0
x[n_x1_y5,n_x1_y7] 0
x[n_x1_y5,n_x2_y0] 0
x[n_x1_y5,n_x2_y1] 0
x[n_x1_y5,n_x2_y2] 0
x[n_x1_y5,n_x2_y3] 0
x[n_x1_y5,n_x2_y4] 0
x[n_x1_y5,n_x2_y5] 0
x[n_x1_y5,n_x2_y6] 0
x[n_x1_y5,n_x2_y7] 0
x[n_x1_y5,n_x3_y0] 0
x[n_x1_y5,n_x3_y1] 0
x[n_x1_y5,n_x3_y2] 0
x[n_x1_y5,n_x3_y3] 0
x[n_x1_y5,n_x3_y4] 0
x[n_x1_y5,n_x3_y5] 0
x[n_x1_y5,n_x3_y6] 0
x[n_x1_y5,n_x3_y7] 0
x[n_x1_y5,n_x4_y0] 0
x[n_x1_y5,n_x4_y1] 0
x[n_x1_y5,n_x4_y2] 0
x[n_x1_y5,n_x4_y3] 0
x[n_x1_y5,n_x4_y4] 0
x[n_x1_y5,n_x4_y5] 0
x[n_x1_y5,n_x4_y6] 0
x[n_x1_y5,n_x4_y7] 0
x[n_x1_y6,n_x0_y0] 0
x[n_x1_y6,n_x0_y1] 0
x[n_x1_y6,n_x0_y2] 0
x[n_x1_y6,n_x0_y3] 0
x[n_x1_y6,n_x0_y4] 0
x[n_x1_y6,n_x0_y5] 0
x[n_x1_y6,n_x0_y6] 0
x[n_x1_y6,n_x0_y7] 0
x[n_x1_y6,n_x1_y0] 0
x[n_x1_y6,n_x1_y1] 0
x[n_x1_y6,n_x1_y2] 0
x[n_x1_y6,n_x1_y3] 0
x[n_x1_y6,n_x1_y4] 0
x[n_x1_y6,n_x1_y5] 0
x[n_x1_y6,n_x1_y6] 1
x[n_x1_y6,n_x1_y7] 0
x[n_x1_y6,n_x2_y0] 0
x[n_x1_y6,n_x2_y1] 0
x[n_x1_y6,n_x2_y2] 0
x[n_x1_y6,n_x2_y3] 0
x[n_x1_y6,n_x2_y4] 0
x[n_x1_y6,n_x2_y5] 0
x[n_x1_y6,n_x2_y6] 0
x[n_x1_y6,n_x2_y7] 0
x[n_x1_y6,n_x3_y0] 0
x[n_x1_y6,n_x3_y1] 0
x[n_x1_y6,n_x3_y2] 0
x[n_x1_y6,n_x3_y3] 0
x[n_x1_y6,n_x3_y4] 0
x[n_x1_y6,n_x3_y5] 0
x[n_x1_y6,n_x3_y6] 0
x[n_x1_y6,n_x3_y7] 0
x[n_x1_y6,n_x4_y0] 0
x[n_x1_y6,n_x4_y1] 0
x[n_x1_y6,n_x4_y2] 0
x[n_x1_y6,n_x4_y3] 0
x[n_x1_y6,n_x4_y4] 0
x[n_x1_y6,n_x4_y5] 0
x[n_x1_y6,n_x4_y6] 0
x[n_x1_y6,n_x4_y7] 0
x[n_x1_y7,n_x0_y0] 0
x[n_x1_y7,n_x0_y1] 0
x[n_x1_y7,n_x0_y2] 0
x[n_x1_y7,n_x0_y3] 0
x[n_x1_y7,n_x0_y4] 0
x[n_x1_y7,n_x0_y5] 0
x[n_x1_y7,n_x0_y6] 0
x[n_x1_y7,n_x0_y7] 0
x[n_x1_y7,n_x1_y0] 0
x[n_x1_y7,n_x1_y1] 0
x[n_x1_y7,n_x1_y2] 0
x[n_x1_y7,n_x1_y3] 0
x[n_x1_y7,n_x1_y4] 0
x[n_x1_y7,n_x1_y5] 0
x[n_x1_y7,n_x1_y6] 1
x[n_x1_y7,n_x1_y7] 0
x[n_x1_y7,n_x2_y0] 0
x[n_x1_y7,n_x2_y1] 0
x[n_x1_y7,n_x2_y2] 0
x[n_x1_y7,n_x2_y3] 0
x[n_x1_y7,n_x2_y4] 0
x[n_x1_y7,n_x2_y5] 0
x[n_x1_y7,n_x2_y6] 0
x[n_x1_y7,n_x2_y7] 0
x[n_x1_y7,n_x3_y0] 0
x[n_x1_y7,n_x3_y1] 0
x[n_x1_y7,n_x3_y2] 0
x[n_x1_y7,n_x3_y3] 0
x[n_x1_y7,n_x3_y4] 0
x[n_x1_y7,n_x3_y5] 0
x[n_x1_y7,n_x3_y6] 0
x[n_x1_y7,n_x3_y7] 0
x[n_x1_y7,n_x4_y0] 0
x[n_x1_y7,n_x4_y1] 0
x[n_x1_y7,n_x4_y2] 0
x[n_x1_y7,n_x4_y3] 0
x[n_x1_y7,n_x4_y4] 0
x[n_x1_y7,n_x4_y5] 0
x[n_x1_y7,n_x4_y6] 0
x[n_x1_y7,n_x4_y7] 0
x[n_x2_y0,n_x0_y0] 0
x[n_x2_y0,n_x0_y1] 0
x[n_x2_y0,n_x0_y2] 0
x[n_x2_y0,n_x0_y3] 0
x[n_x2_y0,n_x0_y4] 0
x[n_x2_y0,n_x0_y5] 0
x[n_x2_y0,n_x0_y6] 0
x[n_x2_y0,n_x0_y7] 0
x[n_x2_y0,n_x1_y0] 0
x[n_x2_y0,n_x1_y1] 0
x[n_x2_y0,n_x1_y2] 0
x[n_x2_y0,n_x1_y3] 0
x[n_x2_y0,n_x1_y4] 0
x[n_x2_y0,n_x1_y5] 0
x[n_x2_y0,n_x1_y6] 0
x[n_x2_y0,n_x1_y7] 0
x[n_x2_y0,n_x2_y0] 0
x[n_x2_y0,n_x2_y1] 0
x[n_x2_y0,n_x2_y2] 0
x[n_x2_y0,n_x2_y3] 0
x[n_x2_y0,n_x2_y4] 0
x[n_x2_y0,n_x2_y5] 0
x[n_x2_y0,n_x2_y6] 0
x[n_x2_y0,n_x2_y7] 0
x[n_x2_y0,n_x3_y0] 1
x[n_x2_y0,n_x3_y1] 0
x[n_x2_y0,n_x3_y2] 0
x[n_x2_y0,n_x3_y3] 0
x[n_x2_y0,n_x3_y4] 0
x[n_x2_y0,n_x3_y5] 0
x[n_x2_y0,n_x3_y6] 0
x[n_x2_y0,n_x3_y7] 0
x[n_x2_y0,n_x4_y0] 0
x[n_x2_y0,n_x4_y1] 0
x[n_x2_y0,n_x4_y2] 0
x[n_x2_y0,n_x4_y3] 0
x[n_x2_y0,n_x4_y4] 0
x[n_x2_y0,n_x4_y5] 0
x[n_x2_y0,n_x4_y6] 0
x[n_x2_y0,n_x4_y7] 0
x[n_x2_y1,n_x0_y0] 0
x[n_x2_y1,n_x0_y1] 0
x[n_x2_y1,n_x0_y2] 0
x[n_x2_y1,n_x0_y3] 0
x[n_x2_y1,n_x0_y4] 0
x[n_x2_y1,n_x0_y5] 0
x[n_x2_y1,n_x0_y6] 0
x[n_x2_y1,n_x0_y7] 0
x[n_x2_y1,n_x1_y0] 0
x[n_x2_y1,n_x1_y1] 0
x[n_x2_y1,n_x1_y2] 0
x[n_x2_y1,n_x1_y3] 0
x[n_x2_y1,n_x1_y4] 0
x[n_x2_y1,n_x1_y5] 0
x[n_x2_y1,n_x1_y6] 0
x[n_x2_y1,n_x1_y7] 0
x[n_x2_y1,n_x2_y0] 0
x[n_x2_y1,n_x2_y1] 0
x[n_x2_y1,n_x2_y2] 1
x[n_x2_y1,n_x2_y3] 0
x[n_x2_y1,n_x2_y4] 0
x[n_x2_y1,n_x2_y5] 0
x[n_x2_y1,n_x2_y6] 0
x[n_x2_y1,n_x2_y7] 0
x[n_x2_y1,n_x3_y0] 0
x[n_x2_y1,n_x3_y1] 0
x[n_x2_y1,n_x3_y2] 0
x[n_x2_y1,n_x3_y3] 0
x[n_x2_y1,n_x3_y4] 0
x[n_x2_y1,n_x3_y5] 0
x[n_x2_y1,n_x3_y6] 0
x[n_x2_y1,n_x3_y7] 0
x[n_x2_y1,n_x4_y0] 0
x[n_x2_y1,n_x4_y1] 0
x[n_x2_y1,n_x4_y2] 0
x[n_x2_y1,n_x4_y3] 0
x[n_x2_y1,n_x4_y4] 0
x[n_x2_y1,n_x4_y5] 0
x[n_x2_y1,n_x4_y6] 0
x[n_x2_y1,n_x4_y7] 0
x[n_x2_y2,n_x0_y0] 0
x[n_x2_y2,n_x0_y1] 0
x[n_x2_y2,n_x0_y2] 0
x[n_x2_y2,n_x0_y3] 0
x[n_x2_y2,n_x0_y4] 0
x[n_x2_y2,n_x0_y5] 0
x[n_x2_y2,n_x0_y6] 0
x[n_x2_y2,n_x0_y7] 0
x[n_x2_y2,n_x1_y0] 0
x[n_x2_y2,n_x1_y1] 0
x[n_x2_y2,n_x1_y2] 0
x[n_x2_y2,n_x1_y3] 0
x[n_x2_y2,n_x1_y4] 0
x[n_x2_y2,n_x1_y5] 0
x[n_x2_y2,n_x1_y6] 0
x[n_x2_y2,n_x1_y7] 0
x[n_x2_y2,n_x2_y0] 0
x[n_x2_y2,n_x2_y1] 0
x[n_x2_y2,n_x2_y2] 1
x[n_x2_y2,n_x2_y3] 0
x[n_x2_y2,n_x2_y4] 0
x[n_x2_y2,n_x2_y5] 0
x[n_x2_y2,n_x2_y6] 0
x[n_x2_y2,n_x2_y7] 0
x[n_x2_y2,n_x3_y0] 0
x[n_x2_y2,n_x3_y1] 0
x[n_x2_y2,n_x3_y2] 0
x[n_x2_y2,n_x3_y3] 0
x[n_x2_y2,n_x3_y4] 0
x[n_x2_y2,n_x3_y5] 0
x[n_x2_y2,n_x3_y6] 0
x[n_x2_y2,n_x3_y7] 0
x[n_x2_y2,n_x4_y0] 0
x[n_x2_y2,n_x4_y1] 0
x[n_x2_y2,n_x4_y2] 0
x[n_x2_y2,n_x4_y3] 0
x[n_x2_y2,n_x4_y4] 0
x[n_x2_y2,n_x4_y5] 0
x[n_x2_y2,n_x4_y6] 0
x[n_x2_y2,n_x4_y7] 0
x[n_x2_y3,n_x0_y0] 0
x[n_x2_y3,n_x0_y1] 0
x[n_x2_y3,n_x0_y2] 0
x[n_x2_y3,n_x0_y3] 0
x[n_x2_y3,n_x0_y4] 0
x[n_x2_y3,n_x0_y5] 0
x[n_x2_y3,n_x0_y6] 0
x[n_x2_y3,n_x0_y7] 0
x[n_x2_y3,n_x1_y0] 0
x[n_x2_y3,n_x1_y1] 0
x[n_x2_y3,n_x1_y2] 0
x[n_x2_y3,n_x1_y3] 0
x[n_x2_y3,n_x1_y4] 0
x[n_x2_y3,n_x1_y5] 0
x[n_x2_y3,n_x1_y6] 0
x[n_x2_y3,n_x1_y7] 0
x[n_x2_y3,n_x2_y0] 0
x[n_x2_y3,n_x2_y1] 0
x[n_x2_y3,n_x2_y2] 1
x[n_x2_y3,n_x2_y3] 0
x[n_x2_y3,n_x2_y4] 0
x[n_x2_y3,n_x2_y5] 0
x[n_x2_y3,n_x2_y6] 0
x[n_x2_y3,n_x2_y7] 0
x[n_x2_y3,n_x3_y0] 0
x[n_x2_y3,n_x3_y1] 0
x[n_x2_y3,n_x3_y2] 0
x[n_x2_y3,n_x3_y3] 0
x[n_x2_y3,n_x3_y4] 0
x[n_x2_y3,n_x3_y5] 0
x[n_x2_y3,n_x3_y6] 0
x[n_x2_y3,n_x3_y7] 0
x[n_x2_y3,n_x4_y0] 0
x[n_x2_y3,n_x4_y1] 0
x[n_x2_y3,n_x4_y2] 0
x[n_x2_y3,n_x4_y3] 0
x[n_x2_y3,n_x4_y4] 0
x[n_x2_y3,n_x4_y5] 0
x[n_x2_y3,n_x4_y6] 0
x[n_x2_y3,n_x4_y7] 0
x[n_x2_y4,n_x0_y0] 0
x[n_x2_y4,n_x0_y1] 0
x[n_x2_y4,n_x0_y2] 0
x[n_x2_y4,n_x0_y3] 0
x[n_x2_y4,n_x0_y4] 0
x[n_x2_y4,n_x0_y5] 0
x[n_x2_y4,n_x0_y6] 0
x[n_x2_y4,n_x0_y7] 0
x[n_x2_y4,n_x1_y0] 0
x[n_x2_y4,n_x1_y1] 0
x[n_x2_y4,n_x1_y2] 0
x[n_x2_y4,n_x1_y3] 0
x[n_x2_y4,n_x1_y4] 1
x[n_x2_y4,n_x1_y5] 0
x[n_x2_y4,n_x1_y6] 0
x[n_x2_y4,n_x1_y7] 0
x[n_x2_y4,n_x2_y0] 0
x[n_x2_y4,n_x2_y1] 0
x[n_x2_y4,n_x2_y2] 0
x[n_x2_y4,n_x2_y3] 0
x[n_x2_y4,n_x2_y4] 0
x[n_x2_y4,n_x2_y5] 0
x[n_x2_y4,n_x2_y6] 0
x[n_x2_y4,n_x2_y7] 0
x[n_x2_y4,n_x3_y0] 0
x[n_x2_y4,n_x3_y1] 0
x[n_x2_y4,n_x3_y2] 0
x[n_x2_y4,n_x3_y3] 0
x[n_x2_y4,n_x3_y4] 0
x[n_x2_y4,n_x3_y5] 0
x[n_x2_y4,n_x3_y6] 0
x[n_x2_y4,n_x3_y7] 0
x[n_x2_y4,n_x4_y0] 0
x[n_x2_y4,n_x4_y1] 0
x[n_x2_y4,n_x4_y2] 0
x[n_x2_y4,n_x4_y3] 0
x[n_x2_y4,n_x4_y4] 0
x[n_x2_y4,n_x4_y5] 0
x[n_x2_y4,n_x4_y6] 0
x[n_x2_y4,n_x4_y7] 0
x[n_x2_y5,n_x0_y0] 0
x[n_x2_y5,n_x0_y1] 0
x[n_x2_y5,n_x0_y2] 0
x[n_x2_y5,n_x0_y3] 0
x[n_x2_y5,n_x0_y4] 0
x[n_x2_y5,n_x0_y5] 0
x[n_x2_y5,n_x0_y6] 0
x[n_x2_y5,n_x0_y7] 0
x[n_x2_y5,n_x1_y0] 0
x[n_x2_y5,n_x1_y1] 0
x[n_x2_y5,n_x1_y2] 0
x[n_x2_y5,n_x1_y3] 0
x[n_x2_y5,n_x1_y4] 0
x[n_x2_y5,n_x1_y5] 0
x[n_x2_y5,n_x1_y6] 0
x[n_x2_y5,n_x1_y7] 0
x[n_x2_y5,n_x2_y0] 0
x[n_x2_y5,n_x2_y1] 0
x[n_x2_y5,n_x2_y2] 0
x[n_x2_y5,n_x2_y3] 0
x[n_x2_y5,n_x2_y4] 0
x[n_x2_y5,n_x2_y5] 0
x[n_x2_y5,n_x2_y6] 0
x[n_x2_y5,n_x2_y7] 0
x[n_x2_y5,n_x3_y0] 0
x[n_x2_y5,n_x3_y1] 0
x[n_x2_y5,n_x3_y2] 0
x[n_x2_y5,n_x3_y3] 0
x[n_x2_y5,n_x3_y4] 0
x[n_x2_y5,n_x3_y5] 0
x[n_x2_y5,n_x3_y6] 1
x[n_x2_y5,n_x3_y7] 0
x[n_x2_y5,n_x4_y0] 0
x[n_x2_y5,n_x4_y1] 0
x[n_x2_y5,n_x4_y2] 0
x[n_x2_y5,n_x4_y3] 0
x[n_x2_y5,n_x4_y4] 0
x[n_x2_y5,n_x4_y5] 0
x[n_x2_y5,n_x4_y6] 0
x[n_x2_y5,n_x4_y7] 0
x[n_x2_y6,n_x0_y0] 0
x[n_x2_y6,n_x0_y1] 0
x[n_x2_y6,n_x0_y2] 0
x[n_x2_y6,n_x0_y3] 0
x[n_x2_y6,n_x0_y4] 0
x[n_x2_y6,n_x0_y5] 0
x[n_x2_y6,n_x0_y6] 0
x[n_x2_y6,n_x0_y7] 0
x[n_x2_y6,n_x1_y0] 0
x[n_x2_y6,n_x1_y1] 0
x[n_x2_y6,n_x1_y2] 0
x[n_x2_y6,n_x1_y3] 0
x[n_x2_y6,n_x1_y4] 0
x[n_x2_y6,n_x1_y5] 0
x[n_x2_y6,n_x1_y6] 1
x[n_x2_y6,n_x1_y7] 0
x[n_x2_y6,n_x2_y0] 0
x[n_x2_y6,n_x2_y1] 0
x[n_x2_y6,n_x2_y2] 0
x[n_x2_y6,n_x2_y3] 0
x[n_x2_y6,n_x2_y4] 0
x[n_x2_y6,n_x2_y5] 0
x[n_x2_y6,n_x2_y6] 0
x[n_x2_y6,n_x2_y7] 0
x[n_x2_y6,n_x3_y0] 0
x[n_x2_y6,n_x3_y1] 0
x[n_x2_y6,n_x3_y2] 0
x[n_x2_y6,n_x3_y3] 0
x[n_x2_y6,n_x3_y4] 0
x[n_x2_y6,n_x3_y5] 0
x[n_x2_y6,n_x3_y6] 0
x[n_x2_y6,n_x3_y7] 0
x[n_x2_y6,n_x4_y0] 0
x[n_x2_y6,n_x4_y1] 0
x[n_x2_y6,n_x4_y2] 0
x[n_x2_y6,n_x4_y3] 0
x[n_x2_y6,n_x4_y4] 0
x[n_x2_y6,n_x4_y5] 0
x[n_x2_y6,n_x4_y6] 0
x[n_x2_y6,n_x4_y7] 0
x[n_x2_y7,n_x0_y0] 0
x[n_x2_y7,n_x0_y1] 0
x[n_x2_y7,n_x0_y2] 0
x[n_x2_y7,n_x0_y3] 0
x[n_x2_y7,n_x0_y4] 0
x[n_x2_y7,n_x0_y5] 0
x[n_x2_y7,n_x0_y6] 0
x[n_x2_y7,n_x0_y7] 0
x[n_x2_y7,n_x1_y0] 0
x[n_x2_y7,n_x1_y1] 0
x[n_x2_y7,n_x1_y2] 0
x[n_x2_y7,n_x1_y3] 0
x[n_x2_y7,n_x1_y4] 0
x[n_x2_y7,n_x1_y5] 0
x[n_x2_y7,n_x1_y6] 0
x[n_x2_y7,n_x1_y7] 0
x[n_x2_y7,n_x2_y0] 0
x[n_x2_y7,n_x2_y1] 0
x[n_x2_y7,n_x2_y2] 0
x[n_x2_y7,n_x2_y3] 0
x[n_x2_y7,n_x2_y4] 0
x[n_x2_y7,n_x2_y5] 0
x[n_x2_y7,n_x2_y6] 0
x[n_x2_y7,n_x2_y7] 0
x[n_x2_y7,n_x3_y0] 0
x[n_x2_y7,n_x3_y1] 0
x[n_x2_y7,n_x3_y2] 0
x[n_x2_y7,n_x3_y3] 0
x[n_x2_y7,n_x3_y4] 0
x[n_x2_y7,n_x3_y5] 0
x[n_x2_y7,n_x3_y6] 1
x[n_x2_y7,n_x3_y7] 0
x[n_x2_y7,n_x4_y0] 0
x[n_x2_y7,n_x4_y1] 0
x[n_x2_y7,n_x4_y2] 0
x[n_x2_y7,n_x4_y3] 0
x[n_x2_y7,n_x4_y4] 0
x[n_x2_y7,n_x4_y5] 0
x[n_x2_y7,n_x4_y6] 0
x[n_x2_y7,n_x4_y7] 0
x[n_x3_y0,n_x0_y0] 0
x[n_x3_y0,n_x0_y1] 0
x[n_x3_y0,n_x0_y2] 0
x[n_x3_y0,n_x0_y3] 0
x[n_x3_y0,n_x0_y4] 0
x[n_x3_y0,n_x0_y5] 0
x[n_x3_y0,n_x0_y6] 0
x[n_x3_y0,n_x0_y7] 0
x[n_x3_y0,n_x1_y0] 0
x[n_x3_y0,n_x1_y1] 0
x[n_x3_y0,n_x1_y2] 0
x[n_x3_y0,n_x1_y3] 0
x[n_x3_y0,n_x1_y4] 0
x[n_x3_y0,n_x1_y5] 0
x[n_x3_y0,n_x1_y6] 0
x[n_x3_y0,n_x1_y7] 0
x[n_x3_y0,n_x2_y0] 0
x[n_x3_y0,n_x2_y1] 0
x[n_x3_y0,n_x2_y2] 0
x[n_x3_y0,n_x2_y3] 0
x[n_x3_y0,n_x2_y4] 0
x[n_x3_y0,n_x2_y5] 0
x[n_x3_y0,n_x2_y6] 0
x[n_x3_y0,n_x2_y7] 0
x[n_x3_y0,n_x3_y0] 1
x[n_x3_y0,n_x3_y1] 0
x[n_x3_y0,n_x3_y2] 0
x[n_x3_y0,n_x3_y3] 0
x[n_x3_y0,n_x3_y4] 0
x[n_x3_y0,n_x3_y5] 0
x[n_x3_y0,n_x3_y6] 0
x[n_x3_y0,n_x3_y7] 0
x[n_x3_y0,n_x4_y0] 0
x[n_x3_y0,n_x4_y1] 0
x[n_x3_y0,n_x4_y2] 0
x[n_x3_y0,n_x4_y3] 0
x[n_x3_y0,n_x4_y4] 0
x[n_x3_y0,n_x4_y5] 0
x[n_x3_y0,n_x4_y6] 0
x[n_x3_y0,n_x4_y7] 0
x[n_x3_y1,n_x0_y0] 0
x[n_x3_y1,n_x0_y1] 0
x[n_x3_y1,n_x0_y2] 0
x[n_x3_y1,n_x0_y3] 0
x[n_x3_y1,n_x0_y4] 0
x[n_x3_y1,n_x0_y5] 0
x[n_x3_y1,n_x0_y6] 0
x[n_x3_y1,n_x0_y7] 0
x[n_x3_y1,n_x1_y0] 0
x[n_x3_y1,n_x1_y1] 0
x[n_x3_y1,n_x1_y2] 0
x[n_x3_y1,n_x1_y3] 0
x[n_x3_y1,n_x1_y4] 0
x[n_x3_y1,n_x1_y5] 0
x[n_x3_y1,n_x1_y6] 0
x[n_x3_y1,n_x1_y7] 0
x[n_x3_y1,n_x2_y0] 0
x[n_x3_y1,n_x2_y1] 0
x[n_x3_y1,n_x2_y2] 0
x[n_x3_y1,n_x2_y3] 0
x[n_x3_y1,n_x2_y4] 0
x[n_x3_y1,n_x2_y5] 0
x[n_x3_y1,n_x2_y6] 0
x[n_x3_y1,n_x2_y7] 0
x[n_x3_y1,n_x3_y0] 0
x[n_x3_y1,n_x3_y1] 0
x[n_x3_y1,n_x3_y2] 1
x[n_x3_y1,n_x3_y3] 0
x[n_x3_y1,n_x3_y4] 0
x[n_x3_y1,n_x3_y5] 0
x[n_x3_y1,n_x3_y6] 0
x[n_x3_y1,n_x3_y7] 0
x[n_x3_y1,n_x4_y0] 0
x[n_x3_y1,n_x4_y1] 0
x[n_x3_y1,n_x4_y2] 0
x[n_x3_y1,n_x4_y3] 0
x[n_x3_y1,n_x4_y4] 0
x[n_x3_y1,n_x4_y5] 0
x[n_x3_y1,n_x4_y6] 0
x[n_x3_y1,n_x4_y7] 0
x[n_x3_y2,n_x0_y0] 0
x[n_x3_y2,n_x0_y1] 0
x[n_x3_y2,n_x0_y2] 0
x[n_x3_y2,n_x0_y3] 0
x[n_x3_y2,n_x0_y4] 0
x[n_x3_y2,n_x0_y5] 0
x[n_x3_y2,n_x0_y6] 0
x[n_x3_y2,n_x0_y7] 0
x[n_x3_y2,n_x1_y0] 0
x[n_x3_y2,n_x1_y1] 0
x[n_x3_y2,n_x1_y2] 0
x[n_x3_y2,n_x1_y3] 0
x[n_x3_y2,n_x1_y4] 0
x[n_x3_y2,n_x1_y5] 0
x[n_x3_y2,n_x1_y6] 0
x[n_x3_y2,n_x1_y7] 0
x[n_x3_y2,n_x2_y0] 0
x[n_x3_y2,n_x2_y1] 0
x[n_x3_y2,n_x2_y2] 0
x[n_x3_y2,n_x2_y3] 0
x[n_x3_y2,n_x2_y4] 0
x[n_x3_y2,n_x2_y5] 0
x[n_x3_y2,n_x2_y6] 0
x[n_x3_y2,n_x2_y7] 0
x[n_x3_y2,n_x3_y0] 0
x[n_x3_y2,n_x3_y1] 0
x[n_x3_y2,n_x3_y2] 1
x[n_x3_y2,n_x3_y3] 0
x[n_x3_y2,n_x3_y4] 0
x[n_x3_y2,n_x3_y5] 0
x[n_x3_y2,n_x3_y6] 0
x[n_x3_y2,n_x3_y7] 0
x[n_x3_y2,n_x4_y0] 0
x[n_x3_y2,n_x4_y1] 0
x[n_x3_y2,n_x4_y2] 0
x[n_x3_y2,n_x4_y3] 0
x[n_x3_y2,n_x4_y4] 0
x[n_x3_y2,n_x4_y5] 0
x[n_x3_y2,n_x4_y6] 0
x[n_x3_y2,n_x4_y7] 0
x[n_x3_y3,n_x0_y0] 0
x[n_x3_y3,n_x0_y1] 0
x[n_x3_y3,n_x0_y2] 0
x[n_x3_y3,n_x0_y3] 0
x[n_x3_y3,n_x0_y4] 0
x[n_x3_y3,n_x0_y5] 0
x[n_x3_y3,n_x0_y6] 0
x[n_x3_y3,n_x0_y7] 0
x[n_x3_y3,n_x1_y0] 0
x[n_x3_y3,n_x1_y1] 0
x[n_x3_y3,n_x1_y2] 0
x[n_x3_y3,n_x1_y3] 0
x[n_x3_y3,n_x1_y4] 0
x[n_x3_y3,n_x1_y5] 0
x[n_x3_y3,n_x1_y6] 0
x[n_x3_y3,n_x1_y7] 0
x[n_x3_y3,n_x2_y0] 0
x[n_x3_y3,n_x2_y1] 0
x[n_x3_y3,n_x2_y2] 0
x[n_x3_y3,n_x2_y3] 0
x[n_x3_y3,n_x2_y4] 0
x[n_x3_y3,n_x2_y5] 0
x[n_x3_y3,n_x2_y6] 0
x[n_x3_y3,n_x2_y7] 0
x[n_x3_y3,n_x3_y0] 0
x[n_x3_y3,n_x3_y1] 0
x[n_x3_y3,n_x3_y2] 1
x[n_x3_y3,n_x3_y3] 0
x[n_x3_y3,n_x3_y4] 0
x[n_x3_y3,n_x3_y5] 0
x[n_x3_y3,n_x3_y6] 0
x[n_x3_y3,n_x3_y7] 0
x[n_x3_y3,n_x4_y0] 0
x[n_x3_y3,n_x4_y1] 0
x[n_x3_y3,n_x4_y2] 0
x[n_x3_y3,n_x4_y3] 0
x[n_x3_y3,n_x4_y4] 0
x[n_x3_y3,n_x4_y5] 0
x[n_x3_y3,n_x4_y6] 0
x[n_x3_y3,n_x4_y7] 0
x[n_x3_y4,n_x0_y0] 0
x[n_x3_y4,n_x0_y1] 0
x[n_x3_y4,n_x0_y2] 0
x[n_x3_y4,n_x0_y3] 0
x[n_x3_y4,n_x0_y4] 0
x[n_x3_y4,n_x0_y5] 0
x[n_x3_y4,n_x0_y6] 0
x[n_x3_y4,n_x0_y7] 0
x[n_x3_y4,n_x1_y0] 0
x[n_x3_y4,n_x1_y1] 0
x[n_x3_y4,n_x1_y2] 0
x[n_x3_y4,n_x1_y3] 0
x[n_x3_y4,n_x1_y4] 0
x[n_x3_y4,n_x1_y5] 0
x[n_x3_y4,n_x1_y6] 0
x[n_x3_y4,n_x1_y7] 0
x[n_x3_y4,n_x2_y0] 0
x[n_x3_y4,n_x2_y1] 0
x[n_x3_y4,n_x2_y2] 0
x[n_x3_y4,n_x2_y3] 0
x[n_x3_y4,n_x2_y4] 0
x[n_x3_y4,n_x2_y5] 0
x[n_x3_y4,n_x2_y6] 0
x[n_x3_y4,n_x2_y7] 0
x[n_x3_y4,n_x3_y0] 0
x[n_x3_y4,n_x3_y1] 0
x[n_x3_y4,n_x3_y2] 0
x[n_x3_y4,n_x3_y3] 0
x[n_x3_y4,n_x3_y4] 0
x[n_x3_y4,n_x3_y5] 0
x[n_x3_y4,n_x3_y6] 0
x[n_x3_y4,n_x3_y7] 0
x[n_x3_y4,n_x4_y0] 0
x[n_x3_y4,n_x4_y1] 0
x[n_x3_y4,n_x4_y2] 0
x[n_x3_y4,n_x4_y3] 0
x[n_x3_y4,n_x4_y4] 1
x[n_x3_y4,n_x4_y5] 0
x[n_x3_y4,n_x4_y6] 0
x[n_x3_y4,n_x4_y7] 0
x[n_x3_y5,n_x0_y0] 0
x[n_x3_y5,n_x0_y1] 0
x[n_x3_y5,n_x0_y2] 0
x[n_x3_y5,n_x0_y3] 0
x[n_x3_y5,n_x0_y4] 0
x[n_x3_y5,n_x0_y5] 0
x[n_x3_y5,n_x0_y6] 0
x[n_x3_y5,n_x0_y7] 0
x[n_x3_y5,n_x1_y0] 0
x[n_x3_y5,n_x1_y1] 0
x[n_x3_y5,n_x1_y2] 0
x[n_x3_y5,n_x1_y3] 0
x[n_x3_y5,n_x1_y4] 0
x[n_x3_y5,n_x1_y5] 0
x[n_x3_y5,n_x1_y6] 0
x[n_x3_y5,n_x1_y7] 0
x[n_x3_y5,n_x2_y0] 0
x[n_x3_y5,n_x2_y1] 0
x[n_x3_y5,n_x2_y2] 0
x[n_x3_y5,n_x2_y3] 0
x[n_x3_y5,n_x2_y4] 0
x[n_x3_y5,n_x2_y5] 0
x[n_x3_y5,n_x2_y6] 0
x[n_x3_y5,n_x2_y7] 0
x[n_x3_y5,n_x3_y0] 0
x[n_x3_y5,n_x3_y1] 0
x[n_x3_y5,n_x3_y2] 0
x[n_x3_y5,n_x3_y3] 0
x[n_x3_y5,n_x3_y4] 0
x[n_x3_y5,n_x3_y5] 0
x[n_x3_y5,n_x3_y6] 1
x[n_x3_y5,n_x3_y7] 0
x[n_x3_y5,n_x4_y0] 0
x[n_x3_y5,n_x4_y1] 0
x[n_x3_y5,n_x4_y2] 0
x[n_x3_y5,n_x4_y3] 0
x[n_x3_y5,n_x4_y4] 0
x[n_x3_y5,n_x4_y5] 0
x[n_x3_y5,n_x4_y6] 0
x[n_x3_y5,n_x4_y7] 0
x[n_x3_y6,n_x0_y0] 0
x[n_x3_y6,n_x0_y1] 0
x[n_x3_y6,n_x0_y2] 0
x[n_x3_y6,n_x0_y3] 0
x[n_x3_y6,n_x0_y4] 0
x[n_x3_y6,n_x0_y5] 0
x[n_x3_y6,n_x0_y6] 0
x[n_x3_y6,n_x0_y7] 0
x[n_x3_y6,n_x1_y0] 0
x[n_x3_y6,n_x1_y1] 0
x[n_x3_y6,n_x1_y2] 0
x[n_x3_y6,n_x1_y3] 0
x[n_x3_y6,n_x1_y4] 0
x[n_x3_y6,n_x1_y5] 0
x[n_x3_y6,n_x1_y6] 0
x[n_x3_y6,n_x1_y7] 0
x[n_x3_y6,n_x2_y0] 0
x[n_x3_y6,n_x2_y1] 0
x[n_x3_y6,n_x2_y2] 0
x[n_x3_y6,n_x2_y3] 0
x[n_x3_y6,n_x2_y4] 0
x[n_x3_y6,n_x2_y5] 0
x[n_x3_y6,n_x2_y6] 0
x[n_x3_y6,n_x2_y7] 0
x[n_x3_y6,n_x3_y0] 0
x[n_x3_y6,n_x3_y1] 0
x[n_x3_y6,n_x3_y2] 0
x[n_x3_y6,n_x3_y3] 0
x[n_x3_y6,n_x3_y4] 0
x[n_x3_y6,n_x3_y5] 0
x[n_x3_y6,n_x3_y6] 1
x[n_x3_y6,n_x3_y7] 0
x[n_x3_y6,n_x4_y0] 0
x[n_x3_y6,n_x4_y1] 0
x[n_x3_y6,n_x4_y2] 0
x[n_x3_y6,n_x4_y3] 0
x[n_x3_y6,n_x4_y4] 0
x[n_x3_y6,n_x4_y5] 0
x[n_x3_y6,n_x4_y6] 0
x[n_x3_y6,n_x4_y7] 0
x[n_x3_y7,n_x0_y0] 0
x[n_x3_y7,n_x0_y1] 0
x[n_x3_y7,n_x0_y2] 0
x[n_x3_y7,n_x0_y3] 0
x[n_x3_y7,n_x0_y4] 0
x[n_x3_y7,n_x0_y5] 0
x[n_x3_y7,n_x0_y6] 0
x[n_x3_y7,n_x0_y7] 0
x[n_x3_y7,n_x1_y0] 0
x[n_x3_y7,n_x1_y1] 0
x[n_x3_y7,n_x1_y2] 0
x[n_x3_y7,n_x1_y3] 0
x[n_x3_y7,n_x1_y4] 0
x[n_x3_y7,n_x1_y5] 0
x[n_x3_y7,n_x1_y6] 0
x[n_x3_y7,n_x1_y7] 0
x[n_x3_y7,n_x2_y0] 0
x[n_x3_y7,n_x2_y1] 0
x[n_x3_y7,n_x2_y2] 0
x[n_x3_y7,n_x2_y3] 0
x[n_x3_y7,n_x2_y4] 0
x[n_x3_y7,n_x2_y5] 0
x[n_x3_y7,n_x2_y6] 0
x[n_x3_y7,n_x2_y7] 0
x[n_x3_y7,n_x3_y0] 0
x[n_x3_y7,n_x3_y1] 0
x[n_x3_y7,n_x3_y2] 0
x[n_x3_y7,n_x3_y3] 0
x[n_x3_y7,n_x3_y4] 0
x[n_x3_y7,n_x3_y5] 0
x[n_x3_y7,n_x3_y6] 1
x[n_x3_y7,n_x3_y7] 0
x[n_x3_y7,n_x4_y0] 0
x[n_x3_y7,n_x4_y1] 0
x[n_x3_y7,n_x4_y2] 0
x[n_x3_y7,n_x4_y3] 0
x[n_x3_y7,n_x4_y4] 0
x[n_x3_y7,n_x4_y5] 0
x[n_x3_y7,n_x4_y6] 0
x[n_x3_y7,n_x4_y7] 0
x[n_x4_y0,n_x0_y0] 0
x[n_x4_y0,n_x0_y1] 0
x[n_x4_y0,n_x0_y2] 0
x[n_x4_y0,n_x0_y3] 0
x[n_x4_y0,n_x0_y4] 0
x[n_x4_y0,n_x0_y5] 0
x[n_x4_y0,n_x0_y6] 0
x[n_x4_y0,n_x0_y7] 0
x[n_x4_y0,n_x1_y0] 0
x[n_x4_y0,n_x1_y1] 0
x[n_x4_y0,n_x1_y2] 0
x[n_x4_y0,n_x1_y3] 0
x[n_x4_y0,n_x1_y4] 0
x[n_x4_y0,n_x1_y5] 0
x[n_x4_y0,n_x1_y6] 0
x[n_x4_y0,n_x1_y7] 0
x[n_x4_y0,n_x2_y0] 0
x[n_x4_y0,n_x2_y1] 0
x[n_x4_y0,n_x2_y2] 0
x[n_x4_y0,n_x2_y3] 0
x[n_x4_y0,n_x2_y4] 0
x[n_x4_y0,n_x2_y5] 0
x[n_x4_y0,n_x2_y6] 0
x[n_x4_y0,n_x2_y7] 0
x[n_x4_y0,n_x3_y0] 1
x[n_x4_y0,n_x3_y1] 0
x[n_x4_y0,n_x3_y2] 0
x[n_x4_y0,n_x3_y3] 0
x[n_x4_y0,n_x3_y4] 0
x[n_x4_y0,n_x3_y5] 0
x[n_x4_y0,n_x3_y6] 0
x[n_x4_y0,n_x3_y7] 0
x[n_x4_y0,n_x4_y0] 0
x[n_x4_y0,n_x4_y1] 0
x[n_x4_y0,n_x4_y2] 0
x[n_x4_y0,n_x4_y3] 0
x[n_x4_y0,n_x4_y4] 0
x[n_x4_y0,n_x4_y5] 0
x[n_x4_y0,n_x4_y6] 0
x[n_x4_y0,n_x4_y7] 0
x[n_x4_y1,n_x0_y0] 0
x[n_x4_y1,n_x0_y1] 0
x[n_x4_y1,n_x0_y2] 0
x[n_x4_y1,n_x0_y3] 0
x[n_x4_y1,n_x0_y4] 0
x[n_x4_y1,n_x0_y5] 0
x[n_x4_y1,n_x0_y6] 0
x[n_x4_y1,n_x0_y7] 0
x[n_x4_y1,n_x1_y0] 0
x[n_x4_y1,n_x1_y1] 0
x[n_x4_y1,n_x1_y2] 0
x[n_x4_y1,n_x1_y3] 0
x[n_x4_y1,n_x1_y4] 0
x[n_x4_y1,n_x1_y5] 0
x[n_x4_y1,n_x1_y6] 0
x[n_x4_y1,n_x1_y7] 0
x[n_x4_y1,n_x2_y0] 0
x[n_x4_y1,n_x2_y1] 0
x[n_x4_y1,n_x2_y2] 0
x[n_x4_y1,n_x2_y3] 0
x[n_x4_y1,n_x2_y4] 0
x[n_x4_y1,n_x2_y5] 0
x[n_x4_y1,n_x2_y6] 0
x[n_x4_y1,n_x2_y7] 0
x[n_x4_y1,n_x3_y0] 1
x[n_x4_y1,n_x3_y1] 0
x[n_x4_y1,n_x3_y2] 0
x[n_x4_y1,n_x3_y3] 0
x[n_x4_y1,n_x3_y4] 0
x[n_x4_y1,n_x3_y5] 0
x[n_x4_y1,n_x3_y6] 0
x[n_x4_y1,n_x3_y7] 0
x[n_x4_y1,n_x4_y0] 0
x[n_x4_y1,n_x4_y1] 0
x[n_x4_y1,n_x4_y2] 0
x[n_x4_y1,n_x4_y3] 0
x[n_x4_y1,n_x4_y4] 0
x[n_x4_y1,n_x4_y5] 0
x[n_x4_y1,n_x4_y6] 0
x[n_x4_y1,n_x4_y7] 0
x[n_x4_y2,n_x0_y0] 0
x[n_x4_y2,n_x0_y1] 0
x[n_x4_y2,n_x0_y2] 0
x[n_x4_y2,n_x0_y3] 0
x[n_x4_y2,n_x0_y4] 0
x[n_x4_y2,n_x0_y5] 0
x[n_x4_y2,n_x0_y6] 0
x[n_x4_y2,n_x0_y7] 0
x[n_x4_y2,n_x1_y0] 0
x[n_x4_y2,n_x1_y1] 0
x[n_x4_y2,n_x1_y2] 0
x[n_x4_y2,n_x1_y3] 0
x[n_x4_y2,n_x1_y4] 0
x[n_x4_y2,n_x1_y5] 0
x[n_x4_y2,n_x1_y6] 0
x[n_x4_y2,n_x1_y7] 0
x[n_x4_y2,n_x2_y0] 0
x[n_x4_y2,n_x2_y1] 0
x[n_x4_y2,n_x2_y2] 0
x[n_x4_y2,n_x2_y3] 0
x[n_x4_y2,n_x2_y4] 0
x[n_x4_y2,n_x2_y5] 0
x[n_x4_y2,n_x2_y6] 0
x[n_x4_y2,n_x2_y7] 0
x[n_x4_y2,n_x3_y0] 0
x[n_x4_y2,n_x3_y1] 0
x[n_x4_y2,n_x3_y2] 1
x[n_x4_y2,n_x3_y3] 0
x[n_x4_y2,n_x3_y4] 0
x[n_x4_y2,n_x3_y5] 0
x[n_x4_y2,n_x3_y6] 0
x[n_x4_y2,n_x3_y7] 0
x[n_x4_y2,n_x4_y0] 0
x[n_x4_y2,n_x4_y1] 0
x[n_x4_y2,n_x4_y2] 0
x[n_x4_y2,n_x4_y3] 0
x[n_x4_y2,n_x4_y4] 0
x[n_x4_y2,n_x4_y5] 0
x[n_x4_y2,n_x4_y6] 0
x[n_x4_y2,n_x4_y7] 0
x[n_x4_y3,n_x0_y0] 0
x[n_x4_y3,n_x0_y1] 0
x[n_x4_y3,n_x0_y2] 0
x[n_x4_y3,n_x0_y3] 0
x[n_x4_y3,n_x0_y4] 0
x[n_x4_y3,n_x0_y5] 0
x[n_x4_y3,n_x0_y6] 0
x[n_x4_y3,n_x0_y7] 0
x[n_x4_y3,n_x1_y0] 0
x[n_x4_y3,n_x1_y1] 0
x[n_x4_y3,n_x1_y2] 0
x[n_x4_y3,n_x1_y3] 0
x[n_x4_y3,n_x1_y4] 0
x[n_x4_y3,n_x1_y5] 0
x[n_x4_y3,n_x1_y6] 0
x[n_x4_y3,n_x1_y7] 0
x[n_x4_y3,n_x2_y0] 0
x[n_x4_y3,n_x2_y1] 0
x[n_x4_y3,n_x2_y2] 0
x[n_x4_y3,n_x2_y3] 0
x[n_x4_y3,n_x2_y4] 0
x[n_x4_y3,n_x2_y5] 0
x[n_x4_y3,n_x2_y6] 0
x[n_x4_y3,n_x2_y7] 0
x[n_x4_y3,n_x3_y0] 0
x[n_x4_y3,n_x3_y1] 0
x[n_x4_y3,n_x3_y2] 0
x[n_x4_y3,n_x3_y3] 0
x[n_x4_y3,n_x3_y4] 0
x[n_x4_y3,n_x3_y5] 0
x[n_x4_y3,n_x3_y6] 0
x[n_x4_y3,n_x3_y7] 0
x[n_x4_y3,n_x4_y0] 0
x[n_x4_y3,n_x4_y1] 0
x[n_x4_y3,n_x4_y2] 0
x[n_x4_y3,n_x4_y3] 0
x[n_x4_y3,n_x4_y4] 1
x[n_x4_y3,n_x4_y5] 0
x[n_x4_y3,n_x4_y6] 0
x[n_x4_y3,n_x4_y7] 0
x[n_x4_y4,n_x0_y0] 0
x[n_x4_y4,n_x0_y1] 0
x[n_x4_y4,n_x0_y2] 0
x[n_x4_y4,n_x0_y3] 0
x[n_x4_y4,n_x0_y4] 0
x[n_x4_y4,n_x0_y5] 0
x[n_x4_y4,n_x0_y6] 0
x[n_x4_y4,n_x0_y7] 0
x[n_x4_y4,n_x1_y0] 0
x[n_x4_y4,n_x1_y1] 0
x[n_x4_y4,n_x1_y2] 0
x[n_x4_y4,n_x1_y3] 0
x[n_x4_y4,n_x1_y4] 0
x[n_x4_y4,n_x1_y5] 0
x[n_x4_y4,n_x1_y6] 0
x[n_x4_y4,n_x1_y7] 0
x[n_x4_y4,n_x2_y0] 0
x[n_x4_y4,n_x2_y1] 0
x[n_x4_y4,n_x2_y2] 0
x[n_x4_y4,n_x2_y3] 0
x[n_x4_y4,n_x2_y4] 0
x[n_x4_y4,n_x2_y5] 0
x[n_x4_y4,n_x2_y6] 0
x[n_x4_y4,n_x2_y7] 0
x[n_x4_y4,n_x3_y0] 0
x[n_x4_y4,n_x3_y1] 0
x[n_x4_y4,n_x3_y2] 0
x[n_x4_y4,n_x3_y3] 0
x[n_x4_y4,n_x3_y4] 0
x[n_x4_y4,n_x3_y5] 0
x[n_x4_y4,n_x3_y6] 0
x[n_x4_y4,n_x3_y7] 0
x[n_x4_y4,n_x4_y0] 0
x[n_x4_y4,n_x4_y1] 0
x[n_x4_y4,n_x4_y2] 0
x[n_x4_y4,n_x4_y3] 0
x[n_x4_y4,n_x4_y4] 1
x[n_x4_y4,n_x4_y5] 0
x[n_x4_y4,n_x4_y6] 0
x[n_x4_y4,n_x4_y7] 0
x[n_x4_y5,n_x0_y0] 0
x[n_x4_y5,n_x0_y1] 0
x[n_x4_y5,n_x0_y2] 0
x[n_x4_y5,n_x0_y3] 0
x[n_x4_y5,n_x0_y4] 0
x[n_x4_y5,n_x0_y5] 0
x[n_x4_y5,n_x0_y6] 0
x[n_x4_y5,n_x0_y7] 0
x[n_x4_y5,n_x1_y0] 0
x[n_x4_y5,n_x1_y1] 0
x[n_x4_y5,n_x1_y2] 0
x[n_x4_y5,n_x1_y3] 0
x[n_x4_y5,n_x1_y4] 0
x[n_x4_y5,n_x1_y5] 0
x[n_x4_y5,n_x1_y6] 0
x[n_x4_y5,n_x1_y7] 0
x[n_x4_y5,n_x2_y0] 0
x[n_x4_y5,n_x2_y1] 0
x[n_x4_y5,n_x2_y2] 0
x[n_x4_y5,n_x2_y3] 0
x[n_x4_y5,n_x2_y4] 0
x[n_x4_y5,n_x2_y5] 0
x[n_x4_y5,n_x2_y6] 0
x[n_x4_y5,n_x2_y7] 0
x[n_x4_y5,n_x3_y0] 0
x[n_x4_y5,n_x3_y1] 0
x[n_x4_y5,n_x3_y2] 0
x[n_x4_y5,n_x3_y3] 0
x[n_x4_y5,n_x3_y4] 0
x[n_x4_y5,n_x3_y5] 0
x[n_x4_y5,n_x3_y6] 0
x[n_x4_y5,n_x3_y7] 0
x[n_x4_y5,n_x4_y0] 0
x[n_x4_y5,n_x4_y1] 0
x[n_x4_y5,n_x4_y2] 0
x[n_x4_y5,n_x4_y3] 0
x[n_x4_y5,n_x4_y4] 1
x[n_x4_y5,n_x4_y5] 0
x[n_x4_y5,n_x4_y6] 0
x[n_x4_y5,n_x4_y7] 0
x[n_x4_y6,n_x0_y0] 0
x[n_x4_y6,n_x0_y1] 0
x[n_x4_y6,n_x0_y2] 0
x[n_x4_y6,n_x0_y3] 0
x[n_x4_y6,n_x0_y4] 0
x[n_x4_y6,n_x0_y5] 0
x[n_x4_y6,n_x0_y6] 0
x[n_x4_y6,n_x0_y7] 0
x[n_x4_y6,n_x1_y0] 0
x[n_x4_y6,n_x1_y1] 0
x[n_x4_y6,n_x1_y2] 0
x[n_x4_y6,n_x1_y3] 0
x[n_x4_y6,n_x1_y4] 0
x[n_x4_y6,n_x1_y5] 0
x[n_x4_y6,n_x1_y6] 0
x[n_x4_y6,n_x1_y7] 0
x[n_x4_y6,n_x2_y0] 0
x[n_x4_y6,n_x2_y1] 0
x[n_x4_y6,n_x2_y2] 0
x[n_x4_y6,n_x2_y3] 0
x[n_x4_y6,n_x2_y4] 0
x[n_x4_y6,n_x2_y5] 0
x[n_x4_y6,n_x2_y6] 0
x[n_x4_y6,n_x2_y7] 0
x[n_x4_y6,n_x3_y0] 0
x[n_x4_y6,n_x3_y1] 0
x[n_x4_y6,n_x3_y2] 0
x[n_x4_y6,n_x3_y3] 0
x[n_x4_y6,n_x3_y4] 0
x[n_x4_y6,n_x3_y5] 0
x[n_x4_y6,n_x3_y6] 1
x[n_x4_y6,n_x3_y7] 0
x[n_x4_y6,n_x4_y0] 0
x[n_x4_y6,n_x4_y1] 0
x[n_x4_y6,n_x4_y2] 0
x[n_x4_y6,n_x4_y3] 0
x[n_x4_y6,n_x4_y4] 0
x[n_x4_y6,n_x4_y5] 0
x[n_x4_y6,n_x4_y6] 0
x[n_x4_y6,n_x4_y7] 0
x[n_x4_y7,n_x0_y0] 0
x[n_x4_y7,n_x0_y1] 0
x[n_x4_y7,n_x0_y2] 0
x[n_x4_y7,n_x0_y3] 0
x[n_x4_y7,n_x0_y4] 0
x[n_x4_y7,n_x0_y5] 0
x[n_x4_y7,n_x0_y6] 0
x[n_x4_y7,n_x0_y7] 0
x[n_x4_y7,n_x1_y0] 0
x[n_x4_y7,n_x1_y1] 0
x[n_x4_y7,n_x1_y2] 0
x[n_x4_y7,n_x1_y3] 0
x[n_x4_y7,n_x1_y4] 0
x[n_x4_y7,n_x1_y5] 0
x[n_x4_y7,n_x1_y6] 0
x[n_x4_y7,n_x1_y7] 0
x[n_x4_y7,n_x2_y0] 0
x[n_x4_y7,n_x2_y1] 0
x[n_x4_y7,n_x2_y2] 0
x[n_x4_y7,n_x2_y3] 0
x[n_x4_y7,n_x2_y4] 0
x[n_x4_y7,n_x2_y5] 0
x[n_x4_y7,n_x2_y6] 0
x[n_x4_y7,n_x2_y7] 0
x[n_x4_y7,n_x3_y0] 0
x[n_x4_y7,n_x3_y1] 0
x[n_x4_y7,n_x3_y2] 0
x[n_x4_y7,n_x3_y3] 0
x[n_x4_y7,n_x3_y4] 0
x[n_x4_y7,n_x3_y5] 0
x[n_x4_y7,n_x3_y6] 1
x[n_x4_y7,n_x3_y7] 0
x[n_x4_y7,n_x4_y0] 0
x[n_x4_y7,n_x4_y1] 0
x[n_x4_y7,n_x4_y2] 0
x[n_x4_y7,n_x4_y3] 0
x[n_x4_y7,n_x4_y4] 0
x[n_x4_y7,n_x4_y5] 0
x[n_x4_y7,n_x4_y6] 0
x[n_x4_y7,n_x4_y7] 0
